TYPE : TSP
DIMENSION: 8
EDGE_DATA_FORMAT: EDGE_LIST
EDGE_WEIGHT_TYPE: EXPLICIT
EDGE_WEIGHT_FORMAT: FULL_MATRIX 
EDGE_DATA_SECTION
0 1
0 2
0 3
0 4
0 5
0 6
0 7
1 0
1 2
1 3
1 4
1 5
1 6
1 7
2 0
2 1
2 3
2 4
2 5
2 6
2 7
3 0
3 1
3 2
3 4
3 5
3 6
3 7
4 0
4 1
4 2
4 3
4 5
4 6
4 7
5 0
5 1
5 2
5 3
5 4
5 6
5 7
6 0
6 1
6 2
6 3
6 4
6 5
6 7
7 0
7 1
7 2
7 3
7 4
7 5
7 6
-1
EDGE_WEIGHT_SECTION
0.0	1.0	1.0	1.0	1.0	1.0	1.0	1.0
1.0	0.0	1.0	1.0	1.0	1.0	1.0	1.0
1.0	1.0	0.0	1.0	1.0	1.0	1.0	1.0
1.0	1.0	1.0	0.0	1.0	1.0	1.0	1.0
1.0	1.0	1.0	1.0	0.0	1.0	1.0	1.0
1.0	1.0	1.0	1.0	1.0	0.0	1.0	1.0
1.0	1.0	1.0	1.0	1.0	1.0	0.0	1.0
1.0	1.0	1.0	1.0	1.0	1.0	1.0	0.0
DIFF_EDGE
0 0
CHROM_NUMBER
8
EOF
